NAME : u159.22664.tour
COMMENT : Length = 22664
COMMENT : Found by LKH [Keld Helsgaun] Wed May 29 17:05:42 2013
TYPE : TOUR
DIMENSION : 32
TOUR_SECTION
159
126
125
124
114
111
110
93
107
106
95
88
77
73
64
62
63
55
52
49
47
121
122
39
34
33
30
28
20
142
149
154
-1
EOF
